1 1259 7
2 1133 7
3 1130 7
5 1104 6
7 1092 6
8 1070 6
27 1041 6
29 1016 6
109 1014 6
162 984 6



1 1191 7
2 1135 6
3 1121 6
4 1110 6
5 1055 6
7 1040 6
32 1024 6
50 992 6



1 1240 7
2 1151 6
3 1082 6
4 1081 6
6 1005 6
193 975 6



1 1176 6
3 1058 6
8 1057 6
13 1049 6
34 1048 6
48 1000 6
224 985 6



1 1206 6
2 1134 6
3 1122 7
4 1040 7
21 1034 6
25 1004 6
113 1001 6
198 989 6
293 983 6
321 966 6



